Route #1: 4 67 26 12 40 17 51 16 63 33
Route #2: 73 1 62 28 22 64 42 43 41 56 23 49 24
Route #3: 7 58 72 31 25 55 18 50 3 44 32 9 39
Route #4: 10 38 65 66 11 59 14 53 35
Route #5: 34 46 8 19 54 52 27 13 57 15 5 29 45
Route #6: 30 48 47 36 37 20 70 60 71 69 61 21 74
Route #7: 6 2 68 75
Cost 752